(set-option :produce-models true)
(set-logic QF_LRA)
(set-info :notes | Strip-packing problem.|)
(declare-fun x0 () Real)
(declare-fun y0 () Real)
(declare-fun x1 () Real)
(declare-fun y1 () Real)
(declare-fun x2 () Real)
(declare-fun y2 () Real)
(declare-fun x3 () Real)
(declare-fun y3 () Real)
(declare-fun x4 () Real)
(declare-fun y4 () Real)
(declare-fun x5 () Real)
(declare-fun y5 () Real)
(declare-fun x6 () Real)
(declare-fun y6 () Real)
(declare-fun x7 () Real)
(declare-fun y7 () Real)
(declare-fun x8 () Real)
(declare-fun y8 () Real)
(declare-fun z () Real)
(declare-fun c () Real)
(assert (and (= c z) (and (>= x0 0) 
(and (>= y0 0) 
(and (>= x1 0) 
(and (>= y1 0) 
(and (>= x2 0) 
(and (>= y2 0) 
(and (>= x3 0) 
(and (>= y3 0) 
(and (>= x4 0) 
(and (>= y4 0) 
(and (>= x5 0) 
(and (>= y5 0) 
(and (>= x6 0) 
(and (>= y6 0) 
(and (>= x7 0) 
(and (>= y7 0) 
(and (>= x8 0) 
(and (>= y8 0) 
(and (>= z 0) 
(and (>= c 0) 
(and (<= (+ x0 0.8757246399) z) 
(and (<= 0.9146765573 y0) 
(and (<= y0 1.5) 
(and (<= x0 (- 3.1425604436 0.8757246399)) 
(and (>= x0 0) 
(and (<= (+ x1 0.4172441226) z) 
(and (<= 0.900524585 y1) 
(and (<= y1 1.5) 
(and (<= x1 (- 3.1425604436 0.4172441226)) 
(and (>= x1 0) 
(and (<= (+ x2 0.3199552576) z) 
(and (<= 0.8434128332 y2) 
(and (<= y2 1.5) 
(and (<= x2 (- 3.1425604436 0.3199552576)) 
(and (>= x2 0) 
(and (<= (+ x3 0.6743569761) z) 
(and (<= 0.650638053 y3) 
(and (<= y3 1.5) 
(and (<= x3 (- 3.1425604436 0.6743569761)) 
(and (>= x3 0) 
(and (<= (+ x4 0.086875282) z) 
(and (<= 0.56651691 y4) 
(and (<= y4 1.5) 
(and (<= x4 (- 3.1425604436 0.086875282)) 
(and (>= x4 0) 
(and (<= (+ x5 0.8552794474) z) 
(and (<= 0.5101026745 y5) 
(and (<= y5 1.5) 
(and (<= x5 (- 3.1425604436 0.8552794474)) 
(and (>= x5 0) 
(and (<= (+ x6 0.1880127402) z) 
(and (<= 0.2098325106 y6) 
(and (<= y6 1.5) 
(and (<= x6 (- 3.1425604436 0.1880127402)) 
(and (>= x6 0) 
(and (<= (+ x7 0.6928259987) z) 
(and (<= 0.1582222869 y7) 
(and (<= y7 1.5) 
(and (<= x7 (- 3.1425604436 0.6928259987)) 
(and (>= x7 0) 
(and (<= (+ x8 0.4948998519) z) 
(and (<= 0.0311510725 y8) 
(and (<= y8 1.5) 
(and (<= x8 (- 3.1425604436 0.4948998519)) 
(and (>= x8 0) 
(and (<= c 3.1425604436) 
(and (or (<= (+ x0 0.8757246399) x1) (or (<= (+ x1 0.4172441226) x0) (or (>= (- y0 0.9146765573) y1) (or (>= (- y1 0.900524585) y0))))) 
(and (or (<= (+ x0 0.8757246399) x2) (or (<= (+ x2 0.3199552576) x0) (or (>= (- y0 0.9146765573) y2) (or (>= (- y2 0.8434128332) y0))))) 
(and (or (<= (+ x0 0.8757246399) x3) (or (<= (+ x3 0.6743569761) x0) (or (>= (- y0 0.9146765573) y3) (or (>= (- y3 0.650638053) y0))))) 
(and (or (<= (+ x0 0.8757246399) x4) (or (<= (+ x4 0.086875282) x0) (or (>= (- y0 0.9146765573) y4) (or (>= (- y4 0.56651691) y0))))) 
(and (or (<= (+ x0 0.8757246399) x5) (or (<= (+ x5 0.8552794474) x0) (or (>= (- y0 0.9146765573) y5) (or (>= (- y5 0.5101026745) y0))))) 
(and (or (<= (+ x0 0.8757246399) x6) (or (<= (+ x6 0.1880127402) x0) (or (>= (- y0 0.9146765573) y6) (or (>= (- y6 0.2098325106) y0))))) 
(and (or (<= (+ x0 0.8757246399) x7) (or (<= (+ x7 0.6928259987) x0) (or (>= (- y0 0.9146765573) y7) (or (>= (- y7 0.1582222869) y0))))) 
(and (or (<= (+ x0 0.8757246399) x8) (or (<= (+ x8 0.4948998519) x0) (or (>= (- y0 0.9146765573) y8) (or (>= (- y8 0.0311510725) y0))))) 
(and (or (<= (+ x1 0.4172441226) x2) (or (<= (+ x2 0.3199552576) x1) (or (>= (- y1 0.900524585) y2) (or (>= (- y2 0.8434128332) y1))))) 
(and (or (<= (+ x1 0.4172441226) x3) (or (<= (+ x3 0.6743569761) x1) (or (>= (- y1 0.900524585) y3) (or (>= (- y3 0.650638053) y1))))) 
(and (or (<= (+ x1 0.4172441226) x4) (or (<= (+ x4 0.086875282) x1) (or (>= (- y1 0.900524585) y4) (or (>= (- y4 0.56651691) y1))))) 
(and (or (<= (+ x1 0.4172441226) x5) (or (<= (+ x5 0.8552794474) x1) (or (>= (- y1 0.900524585) y5) (or (>= (- y5 0.5101026745) y1))))) 
(and (or (<= (+ x1 0.4172441226) x6) (or (<= (+ x6 0.1880127402) x1) (or (>= (- y1 0.900524585) y6) (or (>= (- y6 0.2098325106) y1))))) 
(and (or (<= (+ x1 0.4172441226) x7) (or (<= (+ x7 0.6928259987) x1) (or (>= (- y1 0.900524585) y7) (or (>= (- y7 0.1582222869) y1))))) 
(and (or (<= (+ x1 0.4172441226) x8) (or (<= (+ x8 0.4948998519) x1) (or (>= (- y1 0.900524585) y8) (or (>= (- y8 0.0311510725) y1))))) 
(and (or (<= (+ x2 0.3199552576) x3) (or (<= (+ x3 0.6743569761) x2) (or (>= (- y2 0.8434128332) y3) (or (>= (- y3 0.650638053) y2))))) 
(and (or (<= (+ x2 0.3199552576) x4) (or (<= (+ x4 0.086875282) x2) (or (>= (- y2 0.8434128332) y4) (or (>= (- y4 0.56651691) y2))))) 
(and (or (<= (+ x2 0.3199552576) x5) (or (<= (+ x5 0.8552794474) x2) (or (>= (- y2 0.8434128332) y5) (or (>= (- y5 0.5101026745) y2))))) 
(and (or (<= (+ x2 0.3199552576) x6) (or (<= (+ x6 0.1880127402) x2) (or (>= (- y2 0.8434128332) y6) (or (>= (- y6 0.2098325106) y2))))) 
(and (or (<= (+ x2 0.3199552576) x7) (or (<= (+ x7 0.6928259987) x2) (or (>= (- y2 0.8434128332) y7) (or (>= (- y7 0.1582222869) y2))))) 
(and (or (<= (+ x2 0.3199552576) x8) (or (<= (+ x8 0.4948998519) x2) (or (>= (- y2 0.8434128332) y8) (or (>= (- y8 0.0311510725) y2))))) 
(and (or (<= (+ x3 0.6743569761) x4) (or (<= (+ x4 0.086875282) x3) (or (>= (- y3 0.650638053) y4) (or (>= (- y4 0.56651691) y3))))) 
(and (or (<= (+ x3 0.6743569761) x5) (or (<= (+ x5 0.8552794474) x3) (or (>= (- y3 0.650638053) y5) (or (>= (- y5 0.5101026745) y3))))) 
(and (or (<= (+ x3 0.6743569761) x6) (or (<= (+ x6 0.1880127402) x3) (or (>= (- y3 0.650638053) y6) (or (>= (- y6 0.2098325106) y3))))) 
(and (or (<= (+ x3 0.6743569761) x7) (or (<= (+ x7 0.6928259987) x3) (or (>= (- y3 0.650638053) y7) (or (>= (- y7 0.1582222869) y3))))) 
(and (or (<= (+ x3 0.6743569761) x8) (or (<= (+ x8 0.4948998519) x3) (or (>= (- y3 0.650638053) y8) (or (>= (- y8 0.0311510725) y3))))) 
(and (or (<= (+ x4 0.086875282) x5) (or (<= (+ x5 0.8552794474) x4) (or (>= (- y4 0.56651691) y5) (or (>= (- y5 0.5101026745) y4))))) 
(and (or (<= (+ x4 0.086875282) x6) (or (<= (+ x6 0.1880127402) x4) (or (>= (- y4 0.56651691) y6) (or (>= (- y6 0.2098325106) y4))))) 
(and (or (<= (+ x4 0.086875282) x7) (or (<= (+ x7 0.6928259987) x4) (or (>= (- y4 0.56651691) y7) (or (>= (- y7 0.1582222869) y4))))) 
(and (or (<= (+ x4 0.086875282) x8) (or (<= (+ x8 0.4948998519) x4) (or (>= (- y4 0.56651691) y8) (or (>= (- y8 0.0311510725) y4))))) 
(and (or (<= (+ x5 0.8552794474) x6) (or (<= (+ x6 0.1880127402) x5) (or (>= (- y5 0.5101026745) y6) (or (>= (- y6 0.2098325106) y5))))) 
(and (or (<= (+ x5 0.8552794474) x7) (or (<= (+ x7 0.6928259987) x5) (or (>= (- y5 0.5101026745) y7) (or (>= (- y7 0.1582222869) y5))))) 
(and (or (<= (+ x5 0.8552794474) x8) (or (<= (+ x8 0.4948998519) x5) (or (>= (- y5 0.5101026745) y8) (or (>= (- y8 0.0311510725) y5))))) 
(and (or (<= (+ x6 0.1880127402) x7) (or (<= (+ x7 0.6928259987) x6) (or (>= (- y6 0.2098325106) y7) (or (>= (- y7 0.1582222869) y6))))) 
(and (or (<= (+ x6 0.1880127402) x8) (or (<= (+ x8 0.4948998519) x6) (or (>= (- y6 0.2098325106) y8) (or (>= (- y8 0.0311510725) y6))))) 
(and (or (<= (+ x7 0.6928259987) x8) (or (<= (+ x8 0.4948998519) x7) (or (>= (- y7 0.1582222869) y8) (or (>= (- y8 0.0311510725) y7))))) ))))))))))))))))))))))))))))))))))))))))))))))))))))))))))))))))))))))))))))))))))))))))))))))))))))))))
(minimize c)
(check-sat)
(get-objectives)
(exit)
